Route #1: 6 33 1 43 42 64 41 56 23 63
Route #2: 73 62 22 28 61 21 74 2 68 75
Route #3: 29 5 37 20 70 60 71 69 36 47 48 30
Route #4: 67 34 46 8 52 27 4
Route #5: 45 15 57 13 54 19 59 14 35 7
Route #6: 53 11 66 65 38 10 58
Route #7: 17 3 44 32 9 39 40
Route #8: 51 16 49 24 18 50 25 55 31 72 12 26
Cost 740
Time 0.11435
